\ Model opf_with_dc_load_flow_copy_copy
\ LP format - for model browsing. Use MPS format to capture full model detail.
Minimize
 
Subject To
 heat_demand_coverage_6_41: flexible_load_6[41]
   - 0.3333333333333333 ts_in_6_41 + 0.3333333333333333 ts_out_6_41
   >= 0.0202123678866889
Bounds
 -infinity <= flexible_load_6[41] <= 0.01
 -infinity <= ts_out_6_41 <= 0.03
End
